<number of tasks>
70

<cycle time>
207

<task times>
1 17
2 66
3 54
4 52
5 6
6 88
7 21
8 128
9 68
10 70
11 85
12 21
13 134
14 135
15 94
16 90
17 50
18 143
19 19
20 54
21 50
22 40
23 73
24 12
25 152
26 42
27 45
28 74
29 26
30 11
31 31
32 50
33 102
34 46
35 35
36 40
37 2
38 1
39 3
40 13
41 16
42 25
43 21
44 43
45 30
46 83
47 89
48 56
49 59
50 43
51 11
52 26
53 44
54 121
55 38
56 68
57 22
58 7
59 16
60 32
61 25
62 27
63 156
64 28
65 15
66 26
67 18
68 72
69 23
70 27

<precedence relations>
1,2
1,41
1,69
1,70
2,3
3,4
3,68
4,6
4,7
5,6
5,24
5,30
6,8
7,8
8,12
9,10
10,11
11,12
12,13
12,14
13,23
14,23
15,16
16,17
16,18
17,19
18,19
19,20
19,22
19,57
20,21
21,23
22,23
23,25
23,31
23,33
24,25
25,26
25,27
25,28
25,29
26,35
27,35
28,35
29,35
30,31
31,32
32,35
33,34
34,35
35,36
35,44
35,48
35,51
35,53
35,56
35,60
35,61
35,62
36,37
37,38
38,39
39,40
40,42
41,42
42,43
43,50
44,45
45,46
46,47
47,50
48,49
49,50
51,52
52,54
53,54
54,55
57,58
58,59
59,60
61,65
62,63
63,64
64,65
64,66
64,67

<setup times forward>
1,9:4
1,10:1
1,11:1
1,15:4
1,16:2
1,17:1
1,18:3
1,19:3
1,20:1
1,21:5
1,22:3
1,30:2
1,41:4
1,57:5
1,58:1
1,59:3
1,69:1
1,70:1
2,9:4
2,10:1
2,11:1
2,15:4
2,16:2
2,17:1
2,18:3
2,19:3
2,20:1
2,21:5
2,22:3
2,30:2
2,41:4
2,57:5
2,58:1
2,59:3
2,69:1
2,70:1
3,9:4
3,10:1
3,11:1
3,15:4
3,16:2
3,17:1
3,18:3
3,19:3
3,20:1
3,21:5
3,22:3
3,30:2
3,41:4
3,57:5
3,58:1
3,59:3
3,68:1
3,69:1
3,70:1
4,6:2
4,7:4
4,9:4
4,10:1
4,11:1
4,15:4
4,16:2
4,17:1
4,18:3
4,19:3
4,20:1
4,21:5
4,22:3
4,30:2
4,41:4
4,57:5
4,58:1
4,59:3
4,68:1
4,69:1
4,70:1
5,6:2
5,7:4
5,9:4
5,10:1
5,11:1
5,15:4
5,16:2
5,17:1
5,18:3
5,19:3
5,20:1
5,21:5
5,22:3
5,30:2
5,41:4
5,57:5
5,58:1
5,59:3
5,68:1
5,69:1
5,70:1
6,7:6
6,8:3
6,9:6
6,10:3
6,11:3
6,15:6
6,17:3
6,18:1
6,19:1
6,20:1
6,21:3
6,22:1
6,24:2
6,41:6
6,57:3
6,58:3
6,59:5
6,68:1
6,69:3
6,70:3
7,5:4
7,6:6
7,8:3
7,10:3
7,11:3
7,16:6
7,17:3
7,18:7
7,19:7
7,20:5
7,21:9
7,22:7
7,24:4
7,30:6
7,57:9
7,58:3
7,59:1
7,68:5
7,69:3
7,70:3
8,9:3
8,15:3
8,16:3
8,18:4
8,19:4
8,20:2
8,21:6
8,22:4
8,24:1
8,30:3
8,41:3
8,57:6
8,59:2
8,68:2
9,1:4
9,2:4
9,3:4
9,4:4
9,5:4
9,6:6
9,8:3
9,10:3
9,16:6
9,17:3
9,18:7
9,19:7
9,20:5
9,21:9
9,22:7
9,24:4
9,30:6
9,57:9
9,58:3
9,59:1
9,68:5
9,69:3
9,70:3
10,1:1
10,2:1
10,3:1
10,4:1
10,5:1
10,6:3
10,7:3
10,15:3
10,16:3
10,18:4
10,19:4
10,20:2
10,21:6
10,22:4
10,24:1
10,30:3
10,41:3
10,57:6
10,59:2
10,68:2
11,1:1
11,2:1
11,3:1
11,4:1
11,5:1
11,6:3
11,7:3
11,15:3
11,16:3
11,18:4
11,19:4
11,20:2
11,21:6
11,22:4
11,24:1
11,30:3
11,41:3
11,57:6
11,59:2
11,68:2
12,13:6
12,14:2
12,15:3
12,16:3
12,18:4
12,19:4
12,20:2
12,21:6
12,22:4
12,24:1
12,30:3
12,41:3
12,57:6
12,59:2
12,68:2
13,14:4
13,15:9
13,16:3
13,17:6
13,18:2
13,19:2
13,20:4
13,22:2
13,23:7
13,24:5
13,30:3
13,41:9
13,58:6
13,59:8
13,68:4
13,69:6
13,70:6
14,13:4
14,15:5
14,16:1
14,17:2
14,18:2
14,19:2
14,21:4
14,22:2
14,23:3
14,24:1
14,30:1
14,41:5
14,57:4
14,58:2
14,59:4
14,69:2
14,70:2
15,1:4
15,2:4
15,3:4
15,4:4
15,5:4
15,6:6
15,8:3
15,10:3
15,11:3
15,12:3
15,13:9
15,14:5
15,16:6
15,24:4
15,30:6
15,68:5
15,69:3
15,70:3
16,1:2
16,2:2
16,3:2
16,4:2
16,5:2
16,7:6
16,8:3
16,9:6
16,10:3
16,11:3
16,12:3
16,13:3
16,14:1
16,17:3
16,18:1
16,24:2
16,41:6
16,68:1
16,69:3
16,70:3
17,1:1
17,2:1
17,3:1
17,4:1
17,5:1
17,6:3
17,7:3
17,9:3
17,13:6
17,14:2
17,18:4
17,19:4
17,24:1
17,30:3
17,41:3
17,68:2
18,1:3
18,2:3
18,3:3
18,4:3
18,5:3
18,6:1
18,7:7
18,8:4
18,9:7
18,10:4
18,11:4
18,12:4
18,13:2
18,14:2
18,17:4
18,24:3
18,30:1
18,41:7
18,68:2
18,69:4
18,70:4
19,1:3
19,2:3
19,3:3
19,4:3
19,5:3
19,6:1
19,7:7
19,8:4
19,9:7
19,10:4
19,11:4
19,12:4
19,13:2
19,14:2
19,20:2
19,24:3
19,30:1
19,41:7
19,57:2
19,68:2
19,69:4
19,70:4
20,1:1
20,2:1
20,3:1
20,4:1
20,5:1
20,6:1
20,7:5
20,8:2
20,9:5
20,10:2
20,11:2
20,12:2
20,13:4
20,21:4
20,22:2
20,24:1
20,30:1
20,41:5
20,57:4
20,58:2
20,59:4
20,69:2
20,70:2
21,1:5
21,2:5
21,3:5
21,4:5
21,5:5
21,6:3
21,7:9
21,8:6
21,9:9
21,10:6
21,11:6
21,12:6
21,14:4
21,22:2
21,23:7
21,24:5
21,30:3
21,41:9
21,58:6
21,59:8
21,68:4
21,69:6
21,70:6
22,1:3
22,2:3
22,3:3
22,4:3
22,5:3
22,6:1
22,7:7
22,8:4
22,9:7
22,10:4
22,11:4
22,12:4
22,13:2
22,14:2
22,20:2
22,21:2
22,23:5
22,24:3
22,30:1
22,41:7
22,57:2
22,58:4
22,59:6
22,68:2
22,69:4
22,70:4
23,24:2
23,25:4
23,30:4
23,41:2
23,57:7
23,58:1
23,59:1
23,68:3
23,69:1
23,70:1
24,6:2
24,7:4
24,8:1
24,9:4
24,10:1
24,11:1
24,12:1
24,13:5
24,14:1
24,15:4
24,16:2
24,17:1
24,18:3
24,19:3
24,20:1
24,21:5
24,22:3
24,23:2
24,25:2
24,30:2
24,31:2
24,32:2
24,33:2
24,34:6
24,41:4
24,57:5
24,58:1
24,59:3
24,68:1
24,69:1
24,70:1
25,26:4
25,27:4
25,28:4
25,29:1
25,31:4
25,33:4
25,34:4
25,41:6
25,57:3
25,58:3
25,59:5
25,68:1
25,69:3
25,70:3
26,29:5
26,30:4
26,31:8
26,32:4
26,33:8
26,35:5
26,41:10
26,57:1
26,58:7
26,59:9
26,68:5
26,69:7
26,70:7
27,29:5
27,30:4
27,31:8
27,32:4
27,33:8
27,35:5
27,41:10
27,57:1
27,58:7
27,59:9
27,68:5
27,69:7
27,70:7
28,29:5
28,30:4
28,31:8
28,32:4
28,33:8
28,35:5
28,41:10
28,57:1
28,58:7
28,59:9
28,68:5
28,69:7
28,70:7
29,26:5
29,27:5
29,28:5
29,30:1
29,31:3
29,32:1
29,33:3
29,34:5
29,41:5
29,57:4
29,58:2
29,59:4
29,69:2
29,70:2
30,1:2
30,2:2
30,3:2
30,4:2
30,7:6
30,8:3
30,9:6
30,10:3
30,11:3
30,12:3
30,13:3
30,14:1
30,15:6
30,17:3
30,18:1
30,19:1
30,20:1
30,21:3
30,22:1
30,23:4
30,24:2
30,26:4
30,27:4
30,28:4
30,29:1
30,31:4
30,33:4
30,34:4
30,41:6
30,57:3
30,58:3
30,59:5
30,68:1
30,69:3
30,70:3
31,24:2
31,25:4
31,26:8
31,27:8
31,28:8
31,29:3
31,32:4
31,34:8
31,41:2
31,57:7
31,58:1
31,59:1
31,68:3
31,69:1
31,70:1
32,24:2
32,26:4
32,27:4
32,28:4
32,29:1
32,33:4
32,34:4
32,35:1
32,41:6
32,57:3
32,58:3
32,59:5
32,68:1
32,69:3
32,70:3
33,24:2
33,25:4
33,26:8
33,27:8
33,28:8
33,29:3
33,30:4
33,32:4
33,34:8
33,41:2
33,57:7
33,58:1
33,59:1
33,68:3
33,69:1
33,70:1
34,24:6
34,25:4
34,29:5
34,30:4
34,31:8
34,32:4
34,35:5
34,41:10
34,57:1
34,58:7
34,59:9
34,68:5
34,69:7
34,70:7
35,36:2
35,41:5
35,44:2
35,48:2
35,51:2
35,53:2
35,57:4
35,58:2
35,59:4
35,60:6
35,61:4
35,62:4
35,69:2
35,70:2
36,37:7
36,41:3
36,45:8
36,46:8
36,47:3
36,49:8
36,52:2
36,54:3
36,55:3
36,56:2
36,57:6
36,59:2
36,60:8
36,61:2
36,62:2
36,63:7
36,64:3
36,65:3
36,66:3
36,67:3
36,68:2
37,41:10
37,44:7
37,45:1
37,46:1
37,47:4
37,48:7
37,49:1
37,51:7
37,52:9
37,53:7
37,54:10
37,55:4
37,56:5
37,57:1
37,58:7
37,59:9
37,60:1
37,61:9
37,62:9
37,64:10
37,65:4
37,66:10
37,67:4
37,68:5
37,69:7
37,70:7
38,41:10
38,44:7
38,45:1
38,46:1
38,47:4
38,48:7
38,49:1
38,51:7
38,52:9
38,53:7
38,54:10
38,55:4
38,56:5
38,57:1
38,58:7
38,59:9
38,60:1
38,61:9
38,62:9
38,64:10
38,65:4
38,66:10
38,67:4
38,68:5
38,69:7
38,70:7
39,41:10
39,44:7
39,45:1
39,46:1
39,47:4
39,48:7
39,49:1
39,51:7
39,52:9
39,53:7
39,54:10
39,55:4
39,56:5
39,57:1
39,58:7
39,59:9
39,60:1
39,61:9
39,62:9
39,64:10
39,65:4
39,66:10
39,67:4
39,68:5
39,69:7
39,70:7
40,41:10
40,44:7
40,45:1
40,46:1
40,47:4
40,48:7
40,49:1
40,51:7
40,52:9
40,53:7
40,54:10
40,55:4
40,56:5
40,57:1
40,58:7
40,59:9
40,60:1
40,61:9
40,62:9
40,64:10
40,65:4
40,66:10
40,67:4
40,68:5
40,69:7
40,70:7
41,2:4
41,3:4
41,4:4
41,5:4
41,6:6
41,8:3
41,10:3
41,11:3
41,12:3
41,13:9
41,14:5
41,16:6
41,17:3
41,18:7
41,19:7
41,20:5
41,21:9
41,22:7
41,23:2
41,24:4
41,25:6
41,26:10
41,27:10
41,28:10
41,29:5
41,30:6
41,31:2
41,32:6
41,33:2
41,34:10
41,35:5
41,36:3
41,37:10
41,38:10
41,39:10
41,40:10
41,42:10
41,44:3
41,45:11
41,46:11
41,47:6
41,48:3
41,49:11
41,51:3
41,52:1
41,53:3
41,55:6
41,56:5
41,57:9
41,58:3
41,59:1
41,60:11
41,61:1
41,62:1
41,63:10
41,65:6
41,67:6
41,68:5
41,69:3
41,70:3
42,43:10
42,44:7
42,45:1
42,46:1
42,47:4
42,48:7
42,49:1
42,51:7
42,52:9
42,53:7
42,54:10
42,55:4
42,56:5
42,57:1
42,58:7
42,59:9
42,60:1
42,61:9
42,62:9
42,64:10
42,65:4
42,66:10
42,67:4
42,68:5
42,69:7
42,70:7
43,44:3
43,45:11
43,46:11
43,47:6
43,48:3
43,49:11
43,50:6
43,51:3
43,52:1
43,53:3
43,55:6
43,56:5
43,57:9
43,58:3
43,59:1
43,60:11
43,61:1
43,62:1
43,63:10
43,65:6
43,67:6
43,68:5
43,69:3
43,70:3
44,37:7
44,38:7
44,39:7
44,40:7
44,41:3
44,42:7
44,43:3
44,45:8
44,49:8
44,52:2
44,54:3
44,55:3
44,56:2
44,57:6
44,59:2
44,60:8
44,61:2
44,62:2
44,63:7
44,64:3
44,65:3
44,66:3
44,67:3
44,68:2
45,36:8
45,37:1
45,38:1
45,39:1
45,40:1
45,41:11
45,42:1
45,43:11
45,48:8
45,51:8
45,52:10
45,53:8
45,54:11
45,55:5
45,56:6
45,57:2
45,58:8
45,59:10
45,61:10
45,62:10
45,63:1
45,64:11
45,65:5
45,66:11
45,67:5
45,68:6
45,69:8
45,70:8
46,36:8
46,37:1
46,38:1
46,39:1
46,40:1
46,41:11
46,42:1
46,43:11
46,47:5
46,48:8
46,51:8
46,52:10
46,53:8
46,54:11
46,55:5
46,56:6
46,57:2
46,58:8
46,59:10
46,61:10
46,62:10
46,63:1
46,64:11
46,65:5
46,66:11
46,67:5
46,68:6
46,69:8
46,70:8
47,36:3
47,37:4
47,38:4
47,39:4
47,40:4
47,41:6
47,42:4
47,43:6
47,48:3
47,49:5
47,51:3
47,52:5
47,53:3
47,54:6
47,56:1
47,57:3
47,58:3
47,59:5
47,60:5
47,61:5
47,62:5
47,63:4
47,64:6
47,66:6
47,68:1
47,69:3
47,70:3
48,37:7
48,38:7
48,39:7
48,40:7
48,41:3
48,42:7
48,43:3
48,45:8
48,46:8
48,47:3
48,49:8
48,52:2
48,54:3
48,55:3
48,56:2
48,57:6
48,59:2
48,60:8
48,61:2
48,62:2
48,63:7
48,64:3
48,65:3
48,66:3
48,67:3
48,68:2
49,36:8
49,37:1
49,38:1
49,39:1
49,40:1
49,41:11
49,42:1
49,43:11
49,44:8
49,47:5
49,50:5
49,51:8
49,52:10
49,53:8
49,54:11
49,55:5
49,56:6
49,57:2
49,58:8
49,59:10
49,61:10
49,62:10
49,63:1
49,64:11
49,65:5
49,66:11
49,67:5
49,68:6
49,69:8
49,70:8
50,51:3
50,52:5
50,53:3
50,54:6
50,56:1
50,57:3
50,58:3
50,59:5
50,60:5
50,61:5
50,62:5
50,63:4
50,64:6
50,66:6
50,68:1
50,69:3
50,70:3
51,37:7
51,38:7
51,39:7
51,40:7
51,41:3
51,42:7
51,43:3
51,45:8
51,46:8
51,47:3
51,49:8
51,50:3
51,52:2
51,56:2
51,57:6
51,59:2
51,60:8
51,61:2
51,62:2
51,63:7
51,64:3
51,65:3
51,66:3
51,67:3
51,68:2
52,36:2
52,37:9
52,38:9
52,39:9
52,40:9
52,41:1
52,42:9
52,43:1
52,44:2
52,45:10
52,46:10
52,47:5
52,48:2
52,49:10
52,50:5
52,53:2
52,54:1
52,56:4
52,57:8
52,58:2
52,60:10
52,63:9
52,64:1
52,65:5
52,66:1
52,67:5
52,68:4
52,69:2
52,70:2
53,37:7
53,38:7
53,39:7
53,40:7
53,41:3
53,42:7
53,43:3
53,45:8
53,46:8
53,47:3
53,49:8
53,50:3
53,52:2
53,54:3
53,56:2
53,57:6
53,59:2
53,60:8
53,61:2
53,62:2
53,63:7
53,64:3
53,65:3
53,66:3
53,67:3
53,68:2
54,36:3
54,37:10
54,38:10
54,39:10
54,40:10
54,42:10
54,44:3
54,45:11
54,46:11
54,47:6
54,48:3
54,49:11
54,50:6
54,55:6
54,56:5
54,57:9
54,58:3
54,59:1
54,60:11
54,61:1
54,62:1
54,63:10
54,65:6
54,67:6
54,68:5
54,69:3
54,70:3
55,36:3
55,37:4
55,38:4
55,39:4
55,40:4
55,41:6
55,42:4
55,43:6
55,44:3
55,45:5
55,46:5
55,48:3
55,49:5
55,56:1
55,57:3
55,58:3
55,59:5
55,60:5
55,61:5
55,62:5
55,63:4
55,64:6
55,66:6
55,68:1
55,69:3
55,70:3
56,36:2
56,37:5
56,38:5
56,39:5
56,40:5
56,41:5
56,42:5
56,43:5
56,44:2
56,45:6
56,46:6
56,47:1
56,48:2
56,49:6
56,50:1
56,51:2
56,52:4
56,53:2
56,54:5
56,55:1
56,57:4
56,58:2
56,59:4
56,60:6
56,61:4
56,62:4
56,63:5
56,64:5
56,65:1
56,66:5
56,67:1
56,69:2
56,70:2
57,1:5
57,2:5
57,3:5
57,4:5
57,5:5
57,6:3
57,7:9
57,8:6
57,9:9
57,10:6
57,11:6
57,12:6
57,14:4
57,20:4
57,22:2
57,23:7
57,24:5
57,25:3
57,26:1
57,27:1
57,28:1
57,29:4
57,30:3
57,31:7
57,32:3
57,33:7
57,34:1
57,35:4
57,36:6
57,37:1
57,38:1
57,39:1
57,40:1
57,41:9
57,42:1
57,43:9
57,44:6
57,45:2
57,46:2
57,47:3
57,48:6
57,49:2
57,50:3
57,51:6
57,52:8
57,53:6
57,54:9
57,55:3
57,56:4
57,58:6
57,61:8
57,62:8
57,63:1
57,64:9
57,65:3
57,66:9
57,67:3
57,68:4
57,69:6
57,70:6
58,1:1
58,2:1
58,3:1
58,4:1
58,5:1
58,6:3
58,7:3
58,9:3
58,13:6
58,14:2
58,20:2
58,21:6
58,22:4
58,23:1
58,24:1
58,25:3
58,26:7
58,27:7
58,28:7
58,29:2
58,30:3
58,31:1
58,32:3
58,33:1
58,34:7
58,35:2
58,37:7
58,38:7
58,39:7
58,40:7
58,41:3
58,42:7
58,43:3
58,45:8
58,46:8
58,47:3
58,49:8
58,50:3
58,52:2
58,54:3
58,55:3
58,56:2
58,59:2
58,61:2
58,62:2
58,63:7
58,64:3
58,65:3
58,66:3
58,67:3
58,68:2
59,1:3
59,2:3
59,3:3
59,4:3
59,5:3
59,6:5
59,7:1
59,8:2
59,9:1
59,10:2
59,11:2
59,12:2
59,13:8
59,14:4
59,20:4
59,21:8
59,22:6
59,23:1
59,24:3
59,25:5
59,26:9
59,27:9
59,28:9
59,29:4
59,30:5
59,31:1
59,32:5
59,33:1
59,34:9
59,35:4
59,36:2
59,37:9
59,38:9
59,39:9
59,40:9
59,41:1
59,42:9
59,43:1
59,44:2
59,45:10
59,46:10
59,47:5
59,48:2
59,49:10
59,50:5
59,51:2
59,53:2
59,54:1
59,55:5
59,56:4
59,60:10
59,63:9
59,64:1
59,65:5
59,66:1
59,67:5
59,68:4
59,69:2
59,70:2
60,36:8
60,37:1
60,38:1
60,39:1
60,40:1
60,41:11
60,42:1
60,43:11
60,44:8
60,47:5
60,48:8
60,50:5
60,51:8
60,52:10
60,53:8
60,54:11
60,55:5
60,56:6
60,61:10
60,62:10
60,63:1
60,64:11
60,65:5
60,66:11
60,67:5
60,68:6
60,69:8
60,70:8
61,36:2
61,37:9
61,38:9
61,39:9
61,40:9
61,41:1
61,42:9
61,43:1
61,44:2
61,45:10
61,46:10
61,47:5
61,48:2
61,49:10
61,50:5
61,51:2
61,53:2
61,54:1
61,55:5
61,56:4
61,57:8
61,58:2
61,60:10
61,63:9
61,64:1
61,65:5
61,66:1
61,67:5
61,68:4
61,69:2
61,70:2
62,36:2
62,37:9
62,38:9
62,39:9
62,40:9
62,41:1
62,42:9
62,43:1
62,44:2
62,45:10
62,46:10
62,47:5
62,48:2
62,49:10
62,50:5
62,51:2
62,53:2
62,54:1
62,55:5
62,56:4
62,57:8
62,58:2
62,60:10
62,63:9
62,68:4
62,69:2
62,70:2
63,36:7
63,41:10
63,43:10
63,44:7
63,45:1
63,46:1
63,47:4
63,48:7
63,49:1
63,50:4
63,51:7
63,52:9
63,53:7
63,54:10
63,55:4
63,56:5
63,57:1
63,58:7
63,59:9
63,60:1
63,61:9
63,64:10
63,68:5
63,69:7
63,70:7
64,36:3
64,37:10
64,38:10
64,39:10
64,40:10
64,42:10
64,44:3
64,45:11
64,46:11
64,47:6
64,48:3
64,49:11
64,50:6
64,51:3
64,52:1
64,53:3
64,55:6
64,56:5
64,57:9
64,58:3
64,59:1
64,60:11
64,61:1
64,65:6
64,67:6
64,68:5
64,69:3
64,70:3
65,36:3
65,37:4
65,38:4
65,39:4
65,40:4
65,41:6
65,42:4
65,43:6
65,44:3
65,45:5
65,46:5
65,48:3
65,49:5
65,51:3
65,52:5
65,53:3
65,54:6
65,56:1
65,57:3
65,58:3
65,59:5
65,60:5
65,66:6
65,68:1
65,69:3
65,70:3
66,36:3
66,37:10
66,38:10
66,39:10
66,40:10
66,42:10
66,44:3
66,45:11
66,46:11
66,47:6
66,48:3
66,49:11
66,50:6
66,51:3
66,52:1
66,53:3
66,55:6
66,56:5
66,57:9
66,58:3
66,59:1
66,60:11
66,61:1
66,65:6
66,67:6
66,68:5
66,69:3
66,70:3
67,36:3
67,37:4
67,38:4
67,39:4
67,40:4
67,41:6
67,42:4
67,43:6
67,44:3
67,45:5
67,46:5
67,48:3
67,49:5
67,51:3
67,52:5
67,53:3
67,54:6
67,56:1
67,57:3
67,58:3
67,59:5
67,60:5
67,61:5
67,66:6
67,68:1
67,69:3
67,70:3
68,4:1
68,5:1
68,6:1
68,7:5
68,8:2
68,9:5
68,10:2
68,11:2
68,12:2
68,13:4
68,15:5
68,16:1
68,17:2
68,18:2
68,19:2
68,21:4
68,22:2
68,23:3
68,24:1
68,25:1
68,26:5
68,27:5
68,28:5
68,30:1
68,31:3
68,32:1
68,33:3
68,34:5
68,36:2
68,37:5
68,38:5
68,39:5
68,40:5
68,41:5
68,42:5
68,43:5
68,44:2
68,45:6
68,46:6
68,47:1
68,48:2
68,49:6
68,50:1
68,51:2
68,52:4
68,53:2
68,54:5
68,55:1
68,57:4
68,58:2
68,59:4
68,60:6
68,61:4
68,62:4
68,63:5
68,64:5
68,65:1
68,66:5
68,67:1
68,69:2
68,70:2
69,2:1
69,3:1
69,4:1
69,5:1
69,6:3
69,7:3
69,9:3
69,13:6
69,14:2
69,15:3
69,16:3
69,18:4
69,19:4
69,20:2
69,21:6
69,22:4
69,23:1
69,24:1
69,25:3
69,26:7
69,27:7
69,28:7
69,29:2
69,30:3
69,31:1
69,32:3
69,33:1
69,34:7
69,35:2
69,37:7
69,38:7
69,39:7
69,40:7
69,41:3
69,42:7
69,43:3
69,45:8
69,46:8
69,47:3
69,49:8
69,50:3
69,52:2
69,54:3
69,55:3
69,56:2
69,57:6
69,59:2
69,60:8
69,61:2
69,62:2
69,63:7
69,64:3
69,65:3
69,66:3
69,67:3
69,68:2
70,2:1
70,3:1
70,4:1
70,5:1
70,6:3
70,7:3
70,9:3
70,13:6
70,14:2
70,15:3
70,16:3
70,18:4
70,19:4
70,20:2
70,21:6
70,22:4
70,23:1
70,24:1
70,25:3
70,26:7
70,27:7
70,28:7
70,29:2
70,30:3
70,31:1
70,32:3
70,33:1
70,34:7
70,35:2
70,37:7
70,38:7
70,39:7
70,40:7
70,41:3
70,42:7
70,43:3
70,45:8
70,46:8
70,47:3
70,49:8
70,50:3
70,52:2
70,54:3
70,55:3
70,56:2
70,57:6
70,59:2
70,60:8
70,61:2
70,62:2
70,63:7
70,64:3
70,65:3
70,66:3
70,67:3
70,68:2

<setup times backward>
1,16:2
1,18:3
1,19:3
1,20:1
1,21:5
1,22:3
1,30:2
1,57:5
2,16:2
2,18:3
2,19:3
2,20:1
2,21:5
2,22:3
2,30:2
2,57:5
3,16:2
3,18:3
3,19:3
3,20:1
3,21:5
3,22:3
3,30:2
3,57:5
4,16:2
4,18:3
4,19:3
4,20:1
4,21:5
4,22:3
4,30:2
4,57:5
4,68:1
5,16:2
5,18:3
5,19:3
5,20:1
5,21:5
5,22:3
5,57:5
5,68:1
6,18:1
6,19:1
6,21:3
6,22:1
6,57:3
7,1:4
7,2:4
7,3:4
7,4:4
7,5:4
7,6:6
7,10:3
7,11:3
7,16:6
7,17:3
7,18:7
7,19:7
7,20:5
7,21:9
7,22:7
7,24:4
7,30:6
7,57:9
7,58:3
7,59:1
7,68:5
7,69:3
7,70:3
8,1:1
8,2:1
8,3:1
8,4:1
8,5:1
8,6:3
8,16:3
8,18:4
8,19:4
8,20:2
8,21:6
8,22:4
8,24:1
8,30:3
8,57:6
8,68:2
9,1:4
9,2:4
9,3:4
9,4:4
9,5:4
9,6:6
9,8:3
9,16:6
9,17:3
9,18:7
9,19:7
9,20:5
9,21:9
9,22:7
9,24:4
9,30:6
9,57:9
9,58:3
9,59:1
9,68:5
9,69:3
9,70:3
10,1:1
10,2:1
10,3:1
10,4:1
10,5:1
10,6:3
10,16:3
10,18:4
10,19:4
10,20:2
10,21:6
10,22:4
10,24:1
10,30:3
10,57:6
10,68:2
11,1:1
11,2:1
11,3:1
11,4:1
11,5:1
11,6:3
11,16:3
11,18:4
11,19:4
11,20:2
11,21:6
11,22:4
11,24:1
11,30:3
11,57:6
11,68:2
12,1:1
12,2:1
12,3:1
12,4:1
12,5:1
12,6:3
12,16:3
12,18:4
12,19:4
12,20:2
12,21:6
12,22:4
12,24:1
12,30:3
12,57:6
12,68:2
14,6:1
14,13:4
14,16:1
14,18:2
14,19:2
14,21:4
14,22:2
14,30:1
14,57:4
15,1:4
15,2:4
15,3:4
15,4:4
15,5:4
15,6:6
15,8:3
15,10:3
15,11:3
15,12:3
15,13:9
15,14:5
15,24:4
15,30:6
15,68:5
15,69:3
15,70:3
16,13:3
17,1:1
17,2:1
17,3:1
17,4:1
17,5:1
17,6:3
17,13:6
17,14:2
17,16:3
17,18:4
17,24:1
17,30:3
17,68:2
18,13:2
19,13:2
20,6:1
20,13:4
20,16:1
20,18:2
20,19:2
20,22:2
20,30:1
20,57:4
22,13:2
22,21:2
22,57:2
23,1:2
23,2:2
23,3:2
23,4:2
23,5:2
23,6:4
23,8:1
23,10:1
23,11:1
23,12:1
23,13:7
23,14:3
23,16:4
23,17:1
23,18:5
23,19:5
23,20:3
23,21:7
23,22:5
23,24:2
23,30:4
23,57:7
23,58:1
23,68:3
23,69:1
23,70:1
24,6:2
24,13:5
24,14:1
24,16:2
24,18:3
24,19:3
24,20:1
24,21:5
24,22:3
24,30:2
24,32:2
24,34:6
24,57:5
24,68:1
25,13:3
25,18:1
25,19:1
25,21:3
25,22:1
25,34:4
25,57:3
29,6:1
29,13:4
29,16:1
29,18:2
29,19:2
29,21:4
29,22:2
29,25:1
29,26:5
29,27:5
29,28:5
29,30:1
29,32:1
29,34:5
29,57:4
30,13:3
30,18:1
30,19:1
30,21:3
30,22:1
30,26:4
30,27:4
30,28:4
30,34:4
30,57:3
31,1:2
31,2:2
31,3:2
31,4:2
31,5:2
31,6:4
31,8:1
31,10:1
31,11:1
31,12:1
31,13:7
31,14:3
31,16:4
31,17:1
31,18:5
31,19:5
31,20:3
31,21:7
31,22:5
31,24:2
31,25:4
31,26:8
31,27:8
31,28:8
31,29:3
31,30:4
31,34:8
31,57:7
31,58:1
31,68:3
31,69:1
31,70:1
32,13:3
32,18:1
32,19:1
32,21:3
32,22:1
32,26:4
32,27:4
32,28:4
32,34:4
32,57:3
33,1:2
33,2:2
33,3:2
33,4:2
33,5:2
33,6:4
33,8:1
33,10:1
33,11:1
33,12:1
33,13:7
33,14:3
33,16:4
33,17:1
33,18:5
33,19:5
33,20:3
33,21:7
33,22:5
33,24:2
33,25:4
33,26:8
33,27:8
33,28:8
33,29:3
33,30:4
33,32:4
33,57:7
33,58:1
33,68:3
33,69:1
33,70:1
35,6:1
35,13:4
35,16:1
35,18:2
35,19:2
35,21:4
35,22:2
35,25:1
35,26:5
35,27:5
35,28:5
35,30:1
35,32:1
35,34:5
35,57:4
36,1:1
36,2:1
36,3:1
36,4:1
36,5:1
36,6:3
36,13:6
36,14:2
36,16:3
36,18:4
36,19:4
36,20:2
36,21:6
36,22:4
36,24:1
36,25:3
36,26:7
36,27:7
36,28:7
36,29:2
36,30:3
36,32:3
36,34:7
36,35:2
36,45:8
36,46:8
36,47:3
36,49:8
36,55:3
36,56:2
36,57:6
36,60:8
36,63:7
36,65:3
36,67:3
36,68:2
37,45:1
37,46:1
37,49:1
37,60:1
38,45:1
38,46:1
38,49:1
38,60:1
39,45:1
39,46:1
39,49:1
39,60:1
40,45:1
40,46:1
40,49:1
40,60:1
41,1:4
41,2:4
41,3:4
41,4:4
41,5:4
41,6:6
41,8:3
41,10:3
41,11:3
41,12:3
41,13:9
41,14:5
41,16:6
41,17:3
41,18:7
41,19:7
41,20:5
41,21:9
41,22:7
41,23:2
41,24:4
41,25:6
41,26:10
41,27:10
41,28:10
41,29:5
41,30:6
41,31:2
41,32:6
41,33:2
41,34:10
41,35:5
41,36:3
41,37:10
41,38:10
41,39:10
41,40:10
41,44:3
41,45:11
41,46:11
41,47:6
41,48:3
41,49:11
41,51:3
41,52:1
41,53:3
41,55:6
41,56:5
41,57:9
41,58:3
41,59:1
41,60:11
41,61:1
41,62:1
41,63:10
41,65:6
41,67:6
41,68:5
41,69:3
41,70:3
42,45:1
42,46:1
42,49:1
42,60:1
43,1:4
43,2:4
43,3:4
43,4:4
43,5:4
43,6:6
43,8:3
43,10:3
43,11:3
43,12:3
43,13:9
43,14:5
43,16:6
43,17:3
43,18:7
43,19:7
43,20:5
43,21:9
43,22:7
43,23:2
43,24:4
43,25:6
43,26:10
43,27:10
43,28:10
43,29:5
43,30:6
43,31:2
43,32:6
43,33:2
43,34:10
43,35:5
43,36:3
43,37:10
43,38:10
43,39:10
43,40:10
43,42:10
43,44:3
43,45:11
43,46:11
43,47:6
43,48:3
43,49:11
43,51:3
43,52:1
43,53:3
43,55:6
43,56:5
43,57:9
43,58:3
43,59:1
43,60:11
43,61:1
43,62:1
43,63:10
43,65:6
43,67:6
43,68:5
43,69:3
43,70:3
44,1:1
44,2:1
44,3:1
44,4:1
44,5:1
44,6:3
44,13:6
44,14:2
44,16:3
44,18:4
44,19:4
44,20:2
44,21:6
44,22:4
44,24:1
44,25:3
44,26:7
44,27:7
44,28:7
44,29:2
44,30:3
44,32:3
44,34:7
44,35:2
44,37:7
44,38:7
44,39:7
44,40:7
44,42:7
44,49:8
44,55:3
44,56:2
44,57:6
44,60:8
44,63:7
44,65:3
44,67:3
44,68:2
47,13:3
47,18:1
47,19:1
47,21:3
47,22:1
47,26:4
47,27:4
47,28:4
47,34:4
47,37:4
47,38:4
47,39:4
47,40:4
47,42:4
47,45:5
47,46:5
47,49:5
47,57:3
47,60:5
47,63:4
48,1:1
48,2:1
48,3:1
48,4:1
48,5:1
48,6:3
48,13:6
48,14:2
48,16:3
48,18:4
48,19:4
48,20:2
48,21:6
48,22:4
48,24:1
48,25:3
48,26:7
48,27:7
48,28:7
48,29:2
48,30:3
48,32:3
48,34:7
48,35:2
48,37:7
48,38:7
48,39:7
48,40:7
48,42:7
48,45:8
48,46:8
48,47:3
48,55:3
48,56:2
48,57:6
48,60:8
48,63:7
48,65:3
48,67:3
48,68:2
50,13:3
50,18:1
50,19:1
50,21:3
50,22:1
50,26:4
50,27:4
50,28:4
50,34:4
50,37:4
50,38:4
50,39:4
50,40:4
50,42:4
50,45:5
50,46:5
50,49:5
50,57:3
50,60:5
50,63:4
51,1:1
51,2:1
51,3:1
51,4:1
51,5:1
51,6:3
51,13:6
51,14:2
51,16:3
51,18:4
51,19:4
51,20:2
51,21:6
51,22:4
51,24:1
51,25:3
51,26:7
51,27:7
51,28:7
51,29:2
51,30:3
51,32:3
51,34:7
51,35:2
51,37:7
51,38:7
51,39:7
51,40:7
51,42:7
51,45:8
51,46:8
51,47:3
51,49:8
51,50:3
51,56:2
51,57:6
51,60:8
51,63:7
51,65:3
51,67:3
51,68:2
52,1:3
52,2:3
52,3:3
52,4:3
52,5:3
52,6:5
52,8:2
52,10:2
52,11:2
52,12:2
52,13:8
52,14:4
52,16:5
52,17:2
52,18:6
52,19:6
52,20:4
52,21:8
52,22:6
52,23:1
52,24:3
52,25:5
52,26:9
52,27:9
52,28:9
52,29:4
52,30:5
52,31:1
52,32:5
52,33:1
52,34:9
52,35:4
52,36:2
52,37:9
52,38:9
52,39:9
52,40:9
52,42:9
52,44:2
52,45:10
52,46:10
52,47:5
52,48:2
52,49:10
52,50:5
52,51:2
52,53:2
52,56:4
52,57:8
52,58:2
52,60:10
52,63:9
52,65:5
52,67:5
52,68:4
52,69:2
52,70:2
53,1:1
53,2:1
53,3:1
53,4:1
53,5:1
53,6:3
53,13:6
53,14:2
53,16:3
53,18:4
53,19:4
53,20:2
53,21:6
53,22:4
53,24:1
53,25:3
53,26:7
53,27:7
53,28:7
53,29:2
53,30:3
53,32:3
53,34:7
53,35:2
53,37:7
53,38:7
53,39:7
53,40:7
53,42:7
53,45:8
53,46:8
53,47:3
53,49:8
53,50:3
53,56:2
53,57:6
53,60:8
53,63:7
53,65:3
53,67:3
53,68:2
54,1:4
54,2:4
54,3:4
54,4:4
54,5:4
54,6:6
54,8:3
54,10:3
54,11:3
54,12:3
54,13:9
54,14:5
54,16:6
54,17:3
54,18:7
54,19:7
54,20:5
54,21:9
54,22:7
54,23:2
54,24:4
54,25:6
54,26:10
54,27:10
54,28:10
54,29:5
54,30:6
54,31:2
54,32:6
54,33:2
54,34:10
54,35:5
54,36:3
54,37:10
54,38:10
54,39:10
54,40:10
54,42:10
54,44:3
54,45:11
54,46:11
54,47:6
54,48:3
54,49:11
54,50:6
54,51:3
54,52:1
54,53:3
54,56:5
54,57:9
54,58:3
54,59:1
54,60:11
54,61:1
54,62:1
54,63:10
54,65:6
54,67:6
54,68:5
54,69:3
54,70:3
55,13:3
55,18:1
55,19:1
55,21:3
55,22:1
55,26:4
55,27:4
55,28:4
55,34:4
55,37:4
55,38:4
55,39:4
55,40:4
55,42:4
55,45:5
55,46:5
55,49:5
55,57:3
55,60:5
55,63:4
56,6:1
56,13:4
56,16:1
56,18:2
56,19:2
56,21:4
56,22:2
56,25:1
56,26:5
56,27:5
56,28:5
56,30:1
56,32:1
56,34:5
56,37:5
56,38:5
56,39:5
56,40:5
56,42:5
56,45:6
56,46:6
56,47:1
56,49:6
56,50:1
56,55:1
56,57:4
56,60:6
56,63:5
56,65:1
56,67:1
57,26:1
57,27:1
57,28:1
57,34:1
57,37:1
57,38:1
57,39:1
57,40:1
57,42:1
57,45:2
57,46:2
57,49:2
57,63:1
58,1:1
58,2:1
58,3:1
58,4:1
58,5:1
58,6:3
58,13:6
58,14:2
58,16:3
58,18:4
58,19:4
58,20:2
58,21:6
58,22:4
58,24:1
58,25:3
58,26:7
58,27:7
58,28:7
58,29:2
58,30:3
58,32:3
58,34:7
58,35:2
58,37:7
58,38:7
58,39:7
58,40:7
58,42:7
58,45:8
58,46:8
58,47:3
58,49:8
58,50:3
58,55:3
58,56:2
58,57:6
58,63:7
58,65:3
58,67:3
58,68:2
59,1:3
59,2:3
59,3:3
59,4:3
59,5:3
59,6:5
59,8:2
59,10:2
59,11:2
59,12:2
59,13:8
59,14:4
59,16:5
59,17:2
59,18:6
59,19:6
59,20:4
59,21:8
59,22:6
59,23:1
59,24:3
59,25:5
59,26:9
59,27:9
59,28:9
59,29:4
59,30:5
59,31:1
59,32:5
59,33:1
59,34:9
59,35:4
59,36:2
59,37:9
59,38:9
59,39:9
59,40:9
59,42:9
59,44:2
59,45:10
59,46:10
59,47:5
59,48:2
59,49:10
59,50:5
59,51:2
59,53:2
59,55:5
59,56:4
59,57:8
59,58:2
59,63:9
59,65:5
59,67:5
59,68:4
59,69:2
59,70:2
61,1:3
61,2:3
61,3:3
61,4:3
61,5:3
61,6:5
61,8:2
61,10:2
61,11:2
61,12:2
61,13:8
61,14:4
61,16:5
61,17:2
61,18:6
61,19:6
61,20:4
61,21:8
61,22:6
61,23:1
61,24:3
61,25:5
61,26:9
61,27:9
61,28:9
61,29:4
61,30:5
61,31:1
61,32:5
61,33:1
61,34:9
61,35:4
61,36:2
61,37:9
61,38:9
61,39:9
61,40:9
61,42:9
61,44:2
61,45:10
61,46:10
61,47:5
61,48:2
61,49:10
61,50:5
61,51:2
61,53:2
61,55:5
61,56:4
61,57:8
61,58:2
61,60:10
61,63:9
61,67:5
61,68:4
61,69:2
61,70:2
62,1:3
62,2:3
62,3:3
62,4:3
62,5:3
62,6:5
62,8:2
62,10:2
62,11:2
62,12:2
62,13:8
62,14:4
62,16:5
62,17:2
62,18:6
62,19:6
62,20:4
62,21:8
62,22:6
62,23:1
62,24:3
62,25:5
62,26:9
62,27:9
62,28:9
62,29:4
62,30:5
62,31:1
62,32:5
62,33:1
62,34:9
62,35:4
62,36:2
62,37:9
62,38:9
62,39:9
62,40:9
62,42:9
62,44:2
62,45:10
62,46:10
62,47:5
62,48:2
62,49:10
62,50:5
62,51:2
62,53:2
62,55:5
62,56:4
62,57:8
62,58:2
62,60:10
62,68:4
62,69:2
62,70:2
63,45:1
63,46:1
63,49:1
63,60:1
64,1:4
64,2:4
64,3:4
64,4:4
64,5:4
64,6:6
64,8:3
64,10:3
64,11:3
64,12:3
64,13:9
64,14:5
64,16:6
64,17:3
64,18:7
64,19:7
64,20:5
64,21:9
64,22:7
64,23:2
64,24:4
64,25:6
64,26:10
64,27:10
64,28:10
64,29:5
64,30:6
64,31:2
64,32:6
64,33:2
64,34:10
64,35:5
64,36:3
64,37:10
64,38:10
64,39:10
64,40:10
64,42:10
64,44:3
64,45:11
64,46:11
64,47:6
64,48:3
64,49:11
64,50:6
64,51:3
64,52:1
64,53:3
64,55:6
64,56:5
64,57:9
64,58:3
64,59:1
64,60:11
64,61:1
64,62:1
64,63:10
64,68:5
64,69:3
64,70:3
65,13:3
65,18:1
65,19:1
65,21:3
65,22:1
65,26:4
65,27:4
65,28:4
65,34:4
65,37:4
65,38:4
65,39:4
65,40:4
65,42:4
65,45:5
65,46:5
65,49:5
65,57:3
65,60:5
65,63:4
66,1:4
66,2:4
66,3:4
66,4:4
66,5:4
66,6:6
66,8:3
66,10:3
66,11:3
66,12:3
66,13:9
66,14:5
66,16:6
66,17:3
66,18:7
66,19:7
66,20:5
66,21:9
66,22:7
66,23:2
66,24:4
66,25:6
66,26:10
66,27:10
66,28:10
66,29:5
66,30:6
66,31:2
66,32:6
66,33:2
66,34:10
66,35:5
66,36:3
66,37:10
66,38:10
66,39:10
66,40:10
66,42:10
66,44:3
66,45:11
66,46:11
66,47:6
66,48:3
66,49:11
66,50:6
66,51:3
66,52:1
66,53:3
66,55:6
66,56:5
66,57:9
66,58:3
66,59:1
66,60:11
66,61:1
66,62:1
66,63:10
66,65:6
66,67:6
66,68:5
66,69:3
66,70:3
67,13:3
67,18:1
67,19:1
67,21:3
67,22:1
67,26:4
67,27:4
67,28:4
67,34:4
67,37:4
67,38:4
67,39:4
67,40:4
67,42:4
67,45:5
67,46:5
67,49:5
67,57:3
67,60:5
67,63:4
68,6:1
68,13:4
68,16:1
68,18:2
68,19:2
68,21:4
68,22:2
68,25:1
68,26:5
68,27:5
68,28:5
68,30:1
68,32:1
68,34:5
68,37:5
68,38:5
68,39:5
68,40:5
68,42:5
68,45:6
68,46:6
68,47:1
68,49:6
68,50:1
68,55:1
68,57:4
68,60:6
68,63:5
68,65:1
68,67:1
69,1:1
69,2:1
69,3:1
69,4:1
69,5:1
69,6:3
69,13:6
69,14:2
69,16:3
69,18:4
69,19:4
69,20:2
69,21:6
69,22:4
69,24:1
69,25:3
69,26:7
69,27:7
69,28:7
69,29:2
69,30:3
69,32:3
69,34:7
69,35:2
69,37:7
69,38:7
69,39:7
69,40:7
69,42:7
69,45:8
69,46:8
69,47:3
69,49:8
69,50:3
69,55:3
69,56:2
69,57:6
69,60:8
69,63:7
69,65:3
69,67:3
69,68:2
70,1:1
70,2:1
70,3:1
70,4:1
70,5:1
70,6:3
70,13:6
70,14:2
70,16:3
70,18:4
70,19:4
70,20:2
70,21:6
70,22:4
70,24:1
70,25:3
70,26:7
70,27:7
70,28:7
70,29:2
70,30:3
70,32:3
70,34:7
70,35:2
70,37:7
70,38:7
70,39:7
70,40:7
70,42:7
70,45:8
70,46:8
70,47:3
70,49:8
70,50:3
70,55:3
70,56:2
70,57:6
70,60:8
70,63:7
70,65:3
70,67:3
70,68:2

<end>

<optimal SALBP-1 value>
18


<rand seed>
467321153

